nN = 7;
nR = 15;
nH = 1;

a = [[21, 17, 15, 5, 10, 10, 24, 25, 22, 7, 13, 19, 13, 16, 6], [10, 16, 7, 24, 8, 5, 8, 6, 17, 21, 8, 9, 20, 16, 11], [20, 18, 20, 12, 13, 8, 19, 5, 17, 24, 15, 11, 21, 11, 15], [8, 23, 18, 23, 18, 18, 24, 6, 20, 8, 17, 5, 10, 12, 21], [17, 20, 7, 12, 7, 14, 17, 11, 12, 19, 16, 6, 9, 21, 5], [14, 18, 5, 7, 24, 25, 22, 23, 8, 12, 25, 16, 18, 21, 15], [18, 22, 10, 7, 16, 19, 12, 17, 19, 17, 11, 24, 5, 21, 10]];
c = [[[0, 0, 0, 0, 0, 0, 0, 0, 0, 0, 0, 0, 0, 0, 0], [38, 39, 47, 47, 34, 31, 33, 38, 36, 45, 50, 48, 38, 37, 43], [31, 33, 43, 30, 44, 35, 43, 30, 47, 49, 40, 47, 30, 45, 31], [41, 41, 50, 35, 50, 36, 37, 47, 31, 43, 37, 48, 45, 42, 43], [46, 34, 48, 47, 49, 40, 38, 49, 32, 47, 32, 34, 40, 47, 34], [43, 30, 35, 48, 48, 43, 35, 30, 37, 50, 30, 50, 37, 35, 38], [48, 40, 32, 45, 36, 48, 42, 36, 33, 32, 43, 48, 35, 43, 42]], [[0, 0, 0, 0, 0, 0, 0, 0, 0, 0, 0, 0, 0, 0, 0], [0, 0, 0, 0, 0, 0, 0, 0, 0, 0, 0, 0, 0, 0, 0], [42, 39, 41, 38, 45, 49, 50, 38, 39, 36, 38, 35, 35, 38, 34], [41, 33, 33, 45, 38, 37, 35, 43, 32, 36, 38, 35, 37, 33, 31], [48, 44, 31, 46, 50, 42, 38, 37, 36, 47, 32, 30, 36, 32, 43], [42, 38, 48, 41, 50, 42, 39, 40, 32, 38, 48, 37, 42, 35, 35], [49, 34, 37, 45, 37, 34, 47, 44, 45, 32, 30, 34, 41, 45, 39]], [[0, 0, 0, 0, 0, 0, 0, 0, 0, 0, 0, 0, 0, 0, 0], [0, 0, 0, 0, 0, 0, 0, 0, 0, 0, 0, 0, 0, 0, 0], [0, 0, 0, 0, 0, 0, 0, 0, 0, 0, 0, 0, 0, 0, 0], [42, 40, 41, 40, 41, 38, 44, 33, 34, 50, 35, 42, 50, 38, 37], [36, 30, 42, 41, 47, 40, 42, 38, 48, 36, 45, 44, 31, 32, 36], [33, 40, 40, 45, 30, 36, 47, 33, 31, 48, 43, 39, 50, 32, 31], [49, 34, 49, 42, 32, 31, 37, 31, 35, 49, 46, 37, 30, 35, 34]], [[0, 0, 0, 0, 0, 0, 0, 0, 0, 0, 0, 0, 0, 0, 0], [0, 0, 0, 0, 0, 0, 0, 0, 0, 0, 0, 0, 0, 0, 0], [0, 0, 0, 0, 0, 0, 0, 0, 0, 0, 0, 0, 0, 0, 0], [0, 0, 0, 0, 0, 0, 0, 0, 0, 0, 0, 0, 0, 0, 0], [42, 48, 31, 41, 35, 33, 48, 44, 38, 33, 48, 42, 38, 30, 32], [33, 37, 49, 39, 33, 32, 49, 42, 34, 37, 30, 30, 47, 42, 41], [38, 34, 48, 42, 37, 40, 30, 40, 45, 30, 33, 38, 42, 34, 46]], [[0, 0, 0, 0, 0, 0, 0, 0, 0, 0, 0, 0, 0, 0, 0], [0, 0, 0, 0, 0, 0, 0, 0, 0, 0, 0, 0, 0, 0, 0], [0, 0, 0, 0, 0, 0, 0, 0, 0, 0, 0, 0, 0, 0, 0], [0, 0, 0, 0, 0, 0, 0, 0, 0, 0, 0, 0, 0, 0, 0], [0, 0, 0, 0, 0, 0, 0, 0, 0, 0, 0, 0, 0, 0, 0], [37, 37, 35, 37, 43, 30, 31, 35, 33, 42, 46, 39, 44, 34, 34], [34, 36, 50, 43, 31, 44, 30, 44, 30, 50, 31, 32, 43, 35, 42]], [[0, 0, 0, 0, 0, 0, 0, 0, 0, 0, 0, 0, 0, 0, 0], [0, 0, 0, 0, 0, 0, 0, 0, 0, 0, 0, 0, 0, 0, 0], [0, 0, 0, 0, 0, 0, 0, 0, 0, 0, 0, 0, 0, 0, 0], [0, 0, 0, 0, 0, 0, 0, 0, 0, 0, 0, 0, 0, 0, 0], [0, 0, 0, 0, 0, 0, 0, 0, 0, 0, 0, 0, 0, 0, 0], [0, 0, 0, 0, 0, 0, 0, 0, 0, 0, 0, 0, 0, 0, 0], [49, 37, 31, 44, 46, 33, 43, 36, 39, 31, 38, 50, 46, 35, 49]], [[0, 0, 0, 0, 0, 0, 0, 0, 0, 0, 0, 0, 0, 0, 0], [0, 0, 0, 0, 0, 0, 0, 0, 0, 0, 0, 0, 0, 0, 0], [0, 0, 0, 0, 0, 0, 0, 0, 0, 0, 0, 0, 0, 0, 0], [0, 0, 0, 0, 0, 0, 0, 0, 0, 0, 0, 0, 0, 0, 0], [0, 0, 0, 0, 0, 0, 0, 0, 0, 0, 0, 0, 0, 0, 0], [0, 0, 0, 0, 0, 0, 0, 0, 0, 0, 0, 0, 0, 0, 0], [0, 0, 0, 0, 0, 0, 0, 0, 0, 0, 0, 0, 0, 0, 0]]];
Q = [[27], [21], [28], [24], [24], [27], [27]];

q = [[[8], [22], [5], [22], [11], [18], [23], [21], [14], [10], [5], [25], [15], [23], [11]], [[10], [22], [9], [11], [10], [11], [9], [23], [5], [11], [10], [8], [18], [9], [13]], [[12], [19], [5], [12], [23], [15], [21], [13], [18], [9], [17], [20], [19], [24], [16]], [[14], [15], [19], [11], [22], [16], [12], [18], [6], [15], [18], [19], [9], [6], [10]], [[22], [21], [5], [10], [24], [14], [18], [9], [11], [8], [8], [15], [11], [22], [7]], [[12], [13], [23], [21], [17], [18], [25], [6], [10], [24], [11], [10], [13], [22], [6]], [[12], [15], [17], [9], [20], [20], [7], [5], [7], [21], [17], [15], [19], [23], [25]]];
p = [0.16, 0.61, 0.89, 0.58, 0.65, 0.95, 0.5, 0.8, 0.73, 0.68, 0.49, 0.11, 0.07, 0.6, 0.16];
